
Gurobi 7.0.2 (linux64, Python) logging started Tue May 23 13:26:11 2017

Changed value of parameter Presolve to 0
   Prev: -1  Min: -1  Max: 2  Default: -1
Changed value of parameter Method to 0
   Prev: -1  Min: -1  Max: 4  Default: -1
Changed value of parameter MIPGap to 1e-07
   Prev: 0.0001  Min: 0.0  Max: 1e+100  Default: 0.0001

Gurobi 7.0.2 (linux64, Python) logging started Tue May 23 13:26:50 2017

Changed value of parameter Presolve to 0
   Prev: -1  Min: -1  Max: 2  Default: -1
Changed value of parameter Method to 0
   Prev: -1  Min: -1  Max: 4  Default: -1
Changed value of parameter MIPGap to 1e-07
   Prev: 0.0001  Min: 0.0  Max: 1e+100  Default: 0.0001

Gurobi 7.0.2 (linux64, Python) logging started Tue May 23 13:27:02 2017

Changed value of parameter Presolve to 0
   Prev: -1  Min: -1  Max: 2  Default: -1
Changed value of parameter Method to 0
   Prev: -1  Min: -1  Max: 4  Default: -1
Changed value of parameter MIPGap to 1e-07
   Prev: 0.0001  Min: 0.0  Max: 1e+100  Default: 0.0001

Gurobi 7.0.2 (linux64, Python) logging started Tue May 23 13:27:54 2017

Changed value of parameter Presolve to 0
   Prev: -1  Min: -1  Max: 2  Default: -1
Changed value of parameter Method to 0
   Prev: -1  Min: -1  Max: 4  Default: -1
Changed value of parameter MIPGap to 1e-07
   Prev: 0.0001  Min: 0.0  Max: 1e+100  Default: 0.0001

Gurobi 7.0.2 (linux64, Python) logging started Tue May 23 13:29:29 2017

Changed value of parameter Presolve to 0
   Prev: -1  Min: -1  Max: 2  Default: -1
Changed value of parameter Method to 0
   Prev: -1  Min: -1  Max: 4  Default: -1
Changed value of parameter MIPGap to 1e-07
   Prev: 0.0001  Min: 0.0  Max: 1e+100  Default: 0.0001

Gurobi 7.0.2 (linux64, Python) logging started Tue May 23 13:30:23 2017

Changed value of parameter Presolve to 0
   Prev: -1  Min: -1  Max: 2  Default: -1
Changed value of parameter Method to 0
   Prev: -1  Min: -1  Max: 4  Default: -1
Changed value of parameter MIPGap to 1e-07
   Prev: 0.0001  Min: 0.0  Max: 1e+100  Default: 0.0001

Gurobi 7.0.2 (linux64, Python) logging started Tue May 23 13:30:44 2017

Changed value of parameter Presolve to 0
   Prev: -1  Min: -1  Max: 2  Default: -1
Changed value of parameter Method to 0
   Prev: -1  Min: -1  Max: 4  Default: -1
Changed value of parameter MIPGap to 1e-07
   Prev: 0.0001  Min: 0.0  Max: 1e+100  Default: 0.0001

Gurobi 7.0.2 (linux64, Python) logging started Tue May 23 13:34:31 2017

Changed value of parameter LazyConstraints to 1
   Prev: 0  Min: 0  Max: 1  Default: 0
Optimize a model with 50 rows, 1275 columns and 2500 nonzeros
Variable types: 0 continuous, 1275 integer (1275 binary)
Coefficient statistics:
  Matrix range     [1e+00, 1e+00]
  Objective range  [1e+00, 1e+02]
  Bounds range     [1e+00, 1e+00]
  RHS range        [2e+00, 2e+00]
Found heuristic solution: objective 2708.6
Presolve removed 0 rows and 50 columns
Presolve time: 0.00s
Presolved: 50 rows, 1225 columns, 2450 nonzeros
Variable types: 0 continuous, 1225 integer (1225 binary)

Root relaxation: objective 5.981996e+02, 71 iterations, 0.00 seconds

    Nodes    |    Current Node    |     Objective Bounds      |     Work
 Expl Unexpl |  Obj  Depth IntInf | Incumbent    BestBd   Gap | It/Node Time

     0     0  598.19961    0    6 2708.59984  598.19961  77.9%     -    0s
H    0     0                     784.5828097  598.19961  23.8%     -    0s
     0     0  607.63941    0   14  784.58281  607.63941  22.6%     -    0s
     0     0  625.65466    0   16  784.58281  625.65466  20.3%     -    0s
     0     0  625.98241    0   16  784.58281  625.98241  20.2%     -    0s
     0     2  627.23583    0    6  784.58281  627.23583  20.1%     -    0s
*   36    26               7     640.5159356  628.91156  1.81%   3.3    0s
*   39    18               8     640.4797064  628.91156  1.81%   3.3    0s
*   66    17               6     639.6782485  628.91156  1.68%   3.4    0s
*   74     9               5     635.5388079  628.91156  1.04%   3.2    0s
*   98     0               5     635.5025788  632.03934  0.54%   3.1    0s

Cutting planes:
  Zero half: 7
  Lazy constraints: 26

Explored 107 nodes (419 simplex iterations) in 0.17 seconds
Thread count was 8 (of 8 available processors)

Solution count 7: 635.503 635.539 639.678 ... 2708.6
Pool objective bound 635.503

Optimal solution found (tolerance 1.00e-04)
Best objective 6.355025787588e+02, best bound 6.355025787588e+02, gap 0.0000%

Gurobi 7.0.2 (linux64, Python) logging started Tue May 23 13:39:08 2017

Changed value of parameter LazyConstraints to 1
   Prev: 0  Min: 0  Max: 1  Default: 0
Optimize a model with 50 rows, 1275 columns and 2500 nonzeros
Variable types: 0 continuous, 1275 integer (1275 binary)
Coefficient statistics:
  Matrix range     [1e+00, 1e+00]
  Objective range  [1e+00, 1e+02]
  Bounds range     [1e+00, 1e+00]
  RHS range        [2e+00, 2e+00]
Found heuristic solution: objective 2708.6
Presolve removed 0 rows and 50 columns
Presolve time: 0.00s
Presolved: 50 rows, 1225 columns, 2450 nonzeros
Variable types: 0 continuous, 1225 integer (1225 binary)

Root relaxation: objective 5.981996e+02, 71 iterations, 0.00 seconds

    Nodes    |    Current Node    |     Objective Bounds      |     Work
 Expl Unexpl |  Obj  Depth IntInf | Incumbent    BestBd   Gap | It/Node Time

     0     0  598.19961    0    6 2708.59984  598.19961  77.9%     -    0s
H    0     0                     784.5828097  598.19961  23.8%     -    0s
     0     0  607.63941    0   14  784.58281  607.63941  22.6%     -    0s
     0     0  625.65466    0   16  784.58281  625.65466  20.3%     -    0s
     0     0  625.98241    0   16  784.58281  625.98241  20.2%     -    0s
     0     2  627.23583    0    6  784.58281  627.23583  20.1%     -    0s
*   36    26               7     640.5159356  628.91156  1.81%   3.3    0s
*   39    18               8     640.4797064  628.91156  1.81%   3.3    0s
*   66    17               6     639.6782485  628.91156  1.68%   3.4    0s
*   74     9               5     635.5388079  628.91156  1.04%   3.2    0s
*   98     0               5     635.5025788  632.03934  0.54%   3.1    0s

Cutting planes:
  Zero half: 7
  Lazy constraints: 26

Explored 107 nodes (419 simplex iterations) in 0.16 seconds
Thread count was 8 (of 8 available processors)

Solution count 7: 635.503 635.539 639.678 ... 2708.6
Pool objective bound 635.503

Optimal solution found (tolerance 1.00e-04)
Best objective 6.355025787588e+02, best bound 6.355025787588e+02, gap 0.0000%

Gurobi 7.0.2 (linux64, Python) logging started Tue May 23 13:42:46 2017

Changed value of parameter Presolve to 0
   Prev: -1  Min: -1  Max: 2  Default: -1
Changed value of parameter Method to 0
   Prev: -1  Min: -1  Max: 4  Default: -1
Changed value of parameter MIPGap to 1e-07
   Prev: 0.0001  Min: 0.0  Max: 1e+100  Default: 0.0001

Gurobi 7.0.2 (linux64, Python) logging started Tue May 23 13:43:55 2017

Changed value of parameter Presolve to 0
   Prev: -1  Min: -1  Max: 2  Default: -1
Changed value of parameter Method to 0
   Prev: -1  Min: -1  Max: 4  Default: -1
Changed value of parameter MIPGap to 1e-07
   Prev: 0.0001  Min: 0.0  Max: 1e+100  Default: 0.0001

Gurobi 7.0.2 (linux64, Python) logging started Tue May 23 13:44:11 2017

Changed value of parameter Presolve to 0
   Prev: -1  Min: -1  Max: 2  Default: -1
Changed value of parameter Method to 0
   Prev: -1  Min: -1  Max: 4  Default: -1
Changed value of parameter MIPGap to 1e-07
   Prev: 0.0001  Min: 0.0  Max: 1e+100  Default: 0.0001

Gurobi 7.0.2 (linux64, Python) logging started Tue May 23 13:44:45 2017

Changed value of parameter Presolve to 0
   Prev: -1  Min: -1  Max: 2  Default: -1
Changed value of parameter Method to 0
   Prev: -1  Min: -1  Max: 4  Default: -1
Changed value of parameter MIPGap to 1e-07
   Prev: 0.0001  Min: 0.0  Max: 1e+100  Default: 0.0001

Gurobi 7.0.2 (linux64, Python) logging started Tue May 23 13:46:41 2017

Changed value of parameter Presolve to 0
   Prev: -1  Min: -1  Max: 2  Default: -1
Changed value of parameter Method to 0
   Prev: -1  Min: -1  Max: 4  Default: -1
Changed value of parameter MIPGap to 1e-07
   Prev: 0.0001  Min: 0.0  Max: 1e+100  Default: 0.0001

Gurobi 7.0.2 (linux64, Python) logging started Tue May 23 13:53:02 2017

Changed value of parameter Presolve to 0
   Prev: -1  Min: -1  Max: 2  Default: -1
Changed value of parameter Method to 0
   Prev: -1  Min: -1  Max: 4  Default: -1
Changed value of parameter MIPGap to 1e-07
   Prev: 0.0001  Min: 0.0  Max: 1e+100  Default: 0.0001

Gurobi 7.0.2 (linux64, Python) logging started Tue May 23 13:53:49 2017

Changed value of parameter Presolve to 0
   Prev: -1  Min: -1  Max: 2  Default: -1
Changed value of parameter Method to 0
   Prev: -1  Min: -1  Max: 4  Default: -1
Changed value of parameter MIPGap to 1e-07
   Prev: 0.0001  Min: 0.0  Max: 1e+100  Default: 0.0001

Gurobi 7.0.2 (linux64, Python) logging started Tue May 23 13:53:59 2017

Changed value of parameter Presolve to 0
   Prev: -1  Min: -1  Max: 2  Default: -1
Changed value of parameter Method to 0
   Prev: -1  Min: -1  Max: 4  Default: -1
Changed value of parameter MIPGap to 1e-07
   Prev: 0.0001  Min: 0.0  Max: 1e+100  Default: 0.0001

Gurobi 7.0.2 (linux64, Python) logging started Tue May 23 13:54:37 2017

Changed value of parameter Presolve to 0
   Prev: -1  Min: -1  Max: 2  Default: -1
Changed value of parameter Method to 0
   Prev: -1  Min: -1  Max: 4  Default: -1
Changed value of parameter MIPGap to 1e-07
   Prev: 0.0001  Min: 0.0  Max: 1e+100  Default: 0.0001

Gurobi 7.0.2 (linux64, Python) logging started Tue May 23 14:01:03 2017

Changed value of parameter Presolve to 0
   Prev: -1  Min: -1  Max: 2  Default: -1
Changed value of parameter Method to 0
   Prev: -1  Min: -1  Max: 4  Default: -1
Changed value of parameter MIPGap to 1e-07
   Prev: 0.0001  Min: 0.0  Max: 1e+100  Default: 0.0001

Gurobi 7.0.2 (linux64, Python) logging started Tue May 23 14:02:25 2017

Changed value of parameter Presolve to 0
   Prev: -1  Min: -1  Max: 2  Default: -1
Changed value of parameter Method to 0
   Prev: -1  Min: -1  Max: 4  Default: -1
Changed value of parameter MIPGap to 1e-07
   Prev: 0.0001  Min: 0.0  Max: 1e+100  Default: 0.0001

Gurobi 7.0.2 (linux64, Python) logging started Tue May 23 14:02:43 2017

Changed value of parameter Presolve to 0
   Prev: -1  Min: -1  Max: 2  Default: -1
Changed value of parameter Method to 0
   Prev: -1  Min: -1  Max: 4  Default: -1
Changed value of parameter MIPGap to 1e-07
   Prev: 0.0001  Min: 0.0  Max: 1e+100  Default: 0.0001

Gurobi 7.0.2 (linux64, Python) logging started Tue May 23 14:02:59 2017

Changed value of parameter Presolve to 0
   Prev: -1  Min: -1  Max: 2  Default: -1
Changed value of parameter Method to 0
   Prev: -1  Min: -1  Max: 4  Default: -1
Changed value of parameter MIPGap to 1e-07
   Prev: 0.0001  Min: 0.0  Max: 1e+100  Default: 0.0001

Gurobi 7.0.2 (linux64, Python) logging started Tue May 23 14:03:53 2017

Changed value of parameter Presolve to 0
   Prev: -1  Min: -1  Max: 2  Default: -1
Changed value of parameter Method to 0
   Prev: -1  Min: -1  Max: 4  Default: -1
Changed value of parameter MIPGap to 1e-07
   Prev: 0.0001  Min: 0.0  Max: 1e+100  Default: 0.0001

Gurobi 7.0.2 (linux64, Python) logging started Tue May 23 14:21:10 2017

Changed value of parameter Presolve to 0
   Prev: -1  Min: -1  Max: 2  Default: -1
Changed value of parameter Method to 0
   Prev: -1  Min: -1  Max: 4  Default: -1
Changed value of parameter MIPGap to 1e-07
   Prev: 0.0001  Min: 0.0  Max: 1e+100  Default: 0.0001

Gurobi 7.0.2 (linux64, Python) logging started Tue May 23 14:21:24 2017

Changed value of parameter Presolve to 0
   Prev: -1  Min: -1  Max: 2  Default: -1
Changed value of parameter Method to 0
   Prev: -1  Min: -1  Max: 4  Default: -1
Changed value of parameter MIPGap to 1e-07
   Prev: 0.0001  Min: 0.0  Max: 1e+100  Default: 0.0001

Gurobi 7.0.2 (linux64, Python) logging started Tue May 23 14:22:53 2017

Changed value of parameter Presolve to 0
   Prev: -1  Min: -1  Max: 2  Default: -1
Changed value of parameter Method to 0
   Prev: -1  Min: -1  Max: 4  Default: -1
Changed value of parameter MIPGap to 1e-07
   Prev: 0.0001  Min: 0.0  Max: 1e+100  Default: 0.0001

Gurobi 7.0.2 (linux64, Python) logging started Tue May 23 14:23:01 2017

Changed value of parameter Presolve to 0
   Prev: -1  Min: -1  Max: 2  Default: -1
Changed value of parameter Method to 0
   Prev: -1  Min: -1  Max: 4  Default: -1
Changed value of parameter MIPGap to 1e-07
   Prev: 0.0001  Min: 0.0  Max: 1e+100  Default: 0.0001

Gurobi 7.0.2 (linux64, Python) logging started Tue May 23 14:23:32 2017

Changed value of parameter Presolve to 0
   Prev: -1  Min: -1  Max: 2  Default: -1
Changed value of parameter Method to 0
   Prev: -1  Min: -1  Max: 4  Default: -1
Changed value of parameter MIPGap to 1e-07
   Prev: 0.0001  Min: 0.0  Max: 1e+100  Default: 0.0001

Gurobi 7.0.2 (linux64, Python) logging started Tue May 23 14:23:51 2017

Changed value of parameter Presolve to 0
   Prev: -1  Min: -1  Max: 2  Default: -1
Changed value of parameter Method to 0
   Prev: -1  Min: -1  Max: 4  Default: -1
Changed value of parameter MIPGap to 1e-07
   Prev: 0.0001  Min: 0.0  Max: 1e+100  Default: 0.0001

Gurobi 7.0.2 (linux64, Python) logging started Tue May 23 14:24:34 2017

Changed value of parameter Presolve to 0
   Prev: -1  Min: -1  Max: 2  Default: -1
Changed value of parameter Method to 0
   Prev: -1  Min: -1  Max: 4  Default: -1
Changed value of parameter MIPGap to 1e-07
   Prev: 0.0001  Min: 0.0  Max: 1e+100  Default: 0.0001

Gurobi 7.0.2 (linux64, Python) logging started Tue May 23 14:24:50 2017

Changed value of parameter Presolve to 0
   Prev: -1  Min: -1  Max: 2  Default: -1
Changed value of parameter Method to 0
   Prev: -1  Min: -1  Max: 4  Default: -1
Changed value of parameter MIPGap to 1e-07
   Prev: 0.0001  Min: 0.0  Max: 1e+100  Default: 0.0001

Gurobi 7.0.2 (linux64, Python) logging started Tue May 23 14:25:39 2017

Changed value of parameter Presolve to 0
   Prev: -1  Min: -1  Max: 2  Default: -1
Changed value of parameter Method to 0
   Prev: -1  Min: -1  Max: 4  Default: -1
Changed value of parameter MIPGap to 1e-07
   Prev: 0.0001  Min: 0.0  Max: 1e+100  Default: 0.0001

Gurobi 7.0.2 (linux64, Python) logging started Tue May 23 14:26:34 2017

Changed value of parameter Presolve to 0
   Prev: -1  Min: -1  Max: 2  Default: -1
Changed value of parameter Method to 0
   Prev: -1  Min: -1  Max: 4  Default: -1
Changed value of parameter MIPGap to 1e-07
   Prev: 0.0001  Min: 0.0  Max: 1e+100  Default: 0.0001

Gurobi 7.0.2 (linux64, Python) logging started Tue May 23 14:27:01 2017

Changed value of parameter Presolve to 0
   Prev: -1  Min: -1  Max: 2  Default: -1
Changed value of parameter Method to 0
   Prev: -1  Min: -1  Max: 4  Default: -1
Changed value of parameter MIPGap to 1e-07
   Prev: 0.0001  Min: 0.0  Max: 1e+100  Default: 0.0001
